38 2000
4 100
5 103
2 112
6 173
8 115
4 165
7 156
8 142
9 104
9 153
4 164
6 183
5 168
5 103
11 115
8 139
8 173
6 164
10 116
7 156
6 164
5 103
9 165
7 183
8 168
8 103
2 127
3 153
10 127
11 191
5 100
11 116
5 164
10 191
6 104
4 112
5 139
6 142
